562 5
10 10 10 10 10 

0 0 0 0 0 0 3 2 54 66 
0 0 0 0 0 0 4 3 4 5 6 
5 3 6 2 2 2 5 14 10 9 8 7 
6 5 7 6 9 7 5 14 10 9 8 7 
8 8 6 6 10 6 2 10 7 
9 8 8 10 8 10 3 10 7 529 
6 6 8 9 6 8 3 16 13 11 
1 4 4 10 8 6 2 16 11 
5 5 8 7 10 5 2 16 11 
8 6 10 9 9 9 3 20 16 15 
3 7 5 6 9 4 1 12 
5 8 6 7 8 6 3 22 20 15 
10 7 6 5 6 10 3 22 20 15 
3 7 8 7 7 8 3 19 17 16 
8 8 7 10 2 7 2 19 17 
3 9 10 10 8 7 2 22 18 
10 8 6 8 9 8 1 18 
7 7 9 3 7 10 3 29 27 21 
1 9 10 9 9 5 3 29 27 21 
10 9 8 7 4 7 3 29 27 21 
4 10 9 7 7 8 3 25 24 23 
3 4 10 10 5 9 2 24 23 
10 6 8 6 7 10 1 26 
3 5 10 10 9 10 1 26 
6 8 7 9 8 10 1 26 
7 10 10 9 8 8 1 28 
5 5 7 5 7 6 1 28 
2 4 8 10 8 10 1 30 
5 10 6 7 4 10 1 30 
1 10 7 7 8 5 3 35 33 31 
7 10 8 8 10 10 1 32 
1 5 8 10 7 9 2 38 34 
5 6 7 8 10 7 1 34 
4 9 6 8 3 7 2 37 36 
5 9 8 10 10 5 1 36 
6 9 4 7 7 6 3 43 40 39 
1 10 8 8 7 5 3 43 40 39 
9 7 10 10 7 7 2 40 39 
2 7 7 4 9 5 1 41 
6 7 10 9 6 7 1 41 
6 7 10 8 10 5 1 42 
1 10 5 9 10 9 1 44 
9 9 9 5 10 9 1 44 
5 10 10 6 7 10 1 45 
1 10 6 7 8 8 2 48 46 
5 9 10 7 7 8 2 50 47 
3 10 7 4 10 8 1 49 
9 10 4 10 7 8 1 49 
8 7 3 8 5 8 2 52 51 
1 3 8 8 7 10 2 52 51 
6 7 4 3 9 5 1 53 
1 8 9 7 7 8 1 53 
0 0 0 0 0 0 1 562 
0 0 0 0 0 0 4 55 56 57 59 
6 0 0 0 1 0 2 61 58 
4 0 0 0 10 0 2 61 58 
3 0 0 0 6 0 1 58 
7 0 0 0 10 0 2 62 60 
10 0 0 0 8 0 2 63 61 
1 0 0 0 8 0 1 63 
6 0 0 0 10 0 2 62 492 
8 0 0 0 7 0 1 64 
4 0 0 0 10 0 1 64 
9 0 0 0 5 0 1 65 
0 0 0 0 0 0 5 118 160 202 244 286 
0 0 0 0 0 0 5 67 68 69 71 77 
10 2 4 3 2 3 4 82 80 76 72 
10 7 7 10 6 6 2 75 70 
9 9 8 10 8 6 1 70 
3 8 9 6 7 8 3 82 80 73 
7 9 7 6 7 8 2 82 73 
9 7 9 10 10 9 1 73 
5 5 8 8 4 7 1 74 
10 9 7 9 5 10 4 86 85 83 78 
6 7 5 8 9 8 4 85 83 82 79 
8 9 8 2 10 10 2 85 79 
4 6 6 6 7 3 2 82 81 
5 6 10 10 8 7 1 79 
1 10 8 8 10 10 1 81 
7 9 7 5 9 8 1 81 
10 9 7 10 5 10 4 93 92 88 84 
5 6 5 9 5 6 2 88 84 
7 8 10 10 7 5 3 92 88 87 
7 10 7 5 9 6 2 89 87 
2 10 9 6 10 10 1 88 
4 10 10 6 5 8 1 87 
10 7 10 10 10 10 1 90 
1 10 8 7 9 4 1 90 
7 5 5 6 5 8 1 90 
7 4 4 6 10 6 1 91 
2 8 8 8 9 8 2 99 94 
4 5 5 5 6 6 2 99 94 
6 7 7 7 10 8 3 99 97 95 
2 8 6 9 8 8 2 97 95 
1 9 4 7 9 10 1 96 
1 8 10 5 9 6 3 103 100 98 
9 7 9 10 8 6 2 100 98 
3 7 8 8 9 10 3 107 105 101 
7 10 10 5 7 6 2 105 100 
3 4 5 10 10 8 1 102 
10 5 7 10 9 7 1 102 
2 6 10 8 8 9 1 104 
3 5 10 10 5 5 1 105 
10 10 8 10 10 7 1 106 
7 7 5 9 4 9 1 106 
4 7 7 10 7 10 1 108 
3 10 8 6 5 7 1 108 
3 9 8 3 6 4 1 109 
4 4 9 9 8 10 3 113 110 461 
2 9 10 8 6 8 2 112 111 
6 10 4 10 6 7 2 116 114 
3 8 10 9 6 7 2 116 115 
9 5 6 5 8 8 1 114 
4 7 9 8 10 10 1 115 
6 9 4 5 7 6 1 117 
8 9 10 5 8 9 1 117 
0 0 0 0 0 0 1 562 
0 0 0 0 0 0 2 119 120 
1 3 0 4 3 3 1 121 
10 8 0 7 10 7 1 121 
10 6 0 8 8 5 2 123 122 
9 7 0 10 4 4 4 134 127 126 125 
6 10 0 5 10 10 3 127 126 124 
2 9 0 9 7 10 1 125 
3 7 0 10 5 6 3 130 129 128 
4 9 0 6 7 7 2 130 128 
1 7 0 8 4 6 2 131 130 
4 7 0 9 9 10 2 135 131 
3 10 0 8 8 10 2 135 131 
4 10 0 9 10 10 2 135 132 
9 10 0 6 10 8 1 132 
1 7 0 6 9 5 2 133 450 
10 5 0 8 10 10 3 140 137 136 
8 6 0 8 3 3 1 135 
10 10 0 9 10 8 2 140 136 
7 9 0 4 8 10 2 139 138 
6 7 0 9 10 10 3 143 141 139 
2 10 0 6 5 7 3 145 143 141 
6 7 0 8 10 10 3 145 144 142 
4 7 0 7 8 10 2 143 142 
8 9 0 7 9 8 1 142 
1 4 0 9 6 10 2 148 146 
10 9 0 6 4 4 1 144 
7 6 0 9 9 6 2 150 147 
6 9 0 10 6 4 2 149 148 
6 7 0 6 10 5 1 147 
4 8 0 7 9 6 2 151 149 
10 7 0 3 4 6 2 152 150 
8 6 0 3 8 10 2 153 152 
8 8 0 10 6 10 2 153 151 
6 7 0 5 10 8 2 156 154 
7 5 0 10 5 7 2 156 154 
1 8 0 9 8 8 3 158 156 155 
2 10 0 6 8 8 2 158 155 
8 4 0 8 5 9 1 157 
7 5 0 9 5 10 1 157 
3 7 0 10 10 7 1 159 
4 10 0 9 10 5 1 159 
0 0 0 0 0 0 1 562 
0 0 0 0 0 0 2 161 168 
10 2 5 6 2 0 2 200 162 
5 4 10 5 3 0 2 165 163 
4 7 6 10 10 0 4 186 173 170 164 
7 4 10 5 6 0 1 166 
2 8 4 10 10 0 4 190 186 171 169 
5 8 10 6 6 0 2 171 167 
2 10 5 5 6 0 2 190 169 
4 7 8 10 8 0 2 172 170 
6 6 6 9 9 0 3 189 184 172 
5 9 8 8 8 0 2 189 171 
3 7 7 10 10 0 4 199 184 177 174 
7 9 10 8 8 0 3 199 177 174 
5 6 8 6 10 0 4 198 189 184 175 
5 9 4 10 8 0 3 198 175 539 
9 7 9 5 6 0 1 176 
9 6 8 6 9 0 4 197 196 188 178 
2 10 6 7 8 0 4 198 195 188 179 
7 5 8 8 8 0 2 195 179 
10 9 3 9 10 0 2 194 180 
7 8 10 10 9 0 1 181 
8 7 4 10 10 0 2 193 182 
1 10 10 9 7 0 1 183 
7 10 9 3 6 0 2 192 185 
7 10 10 5 7 0 1 185 
2 10 7 10 10 0 1 187 
1 9 5 6 7 0 1 189 
8 10 10 8 3 0 1 191 
5 6 10 4 6 0 1 191 
7 4 10 6 9 0 1 192 
2 6 9 9 5 0 1 192 
4 8 10 9 9 0 1 201 
6 5 6 6 10 0 1 201 
1 10 8 7 9 0 1 201 
3 7 5 10 10 0 1 201 
3 4 7 10 5 0 1 201 
9 8 4 8 8 0 1 201 
2 9 5 7 4 0 1 201 
2 7 9 6 5 0 1 201 
5 10 10 5 8 0 1 201 
8 9 7 9 8 0 1 201 
0 0 0 0 0 0 1 562 
0 0 0 0 0 0 2 203 205 
4 7 4 0 5 7 1 204 
4 6 4 0 7 10 2 207 206 
5 8 9 0 3 6 2 208 206 
1 9 9 0 5 5 4 218 211 210 209 
3 5 8 0 10 5 3 211 210 208 
9 9 6 0 10 8 1 209 
5 8 8 0 10 8 3 214 213 212 
9 6 4 0 10 7 2 215 213 
2 6 5 0 10 10 2 215 213 
6 8 8 0 6 8 2 219 215 
3 6 10 0 10 7 2 219 216 
7 7 10 0 10 8 2 219 216 
6 8 8 0 10 10 1 216 
4 10 10 0 7 5 1 217 
8 7 10 0 4 10 3 223 221 220 
5 7 10 0 6 10 2 223 219 
10 4 7 0 3 9 2 224 222 
9 7 7 0 10 8 3 227 225 224 
8 10 6 0 5 10 1 222 
2 4 10 0 8 4 3 228 227 225 
1 9 8 0 6 7 3 233 229 227 
5 4 9 0 4 10 3 233 229 228 
7 7 10 0 10 5 1 226 
2 10 5 0 7 6 2 233 229 
1 9 9 0 10 7 3 234 232 231 
5 7 10 0 9 8 2 234 231 
7 10 7 0 8 8 1 230 
8 8 10 0 3 10 2 235 231 
7 9 10 0 10 4 2 238 236 
3 6 7 0 10 6 2 238 236 
1 10 3 0 7 4 1 234 
3 7 5 0 9 4 1 235 
1 4 6 0 7 9 2 239 237 
2 9 2 0 10 5 2 239 237 
8 10 10 0 10 5 2 242 240 
10 9 5 0 5 10 2 242 239 
10 10 6 0 8 10 1 241 
2 6 6 0 4 10 2 241 335 
7 5 9 0 6 10 1 243 
9 9 10 0 8 7 1 243 
0 0 0 0 0 0 1 562 
0 0 0 0 0 0 2 245 247 
2 8 5 0 3 4 1 246 
3 6 3 0 10 5 2 249 248 
4 4 10 0 6 6 2 250 248 
3 9 5 0 9 9 4 260 253 252 251 
4 10 5 0 6 9 3 253 252 250 
6 5 10 0 2 6 2 251 346 
9 9 10 0 10 6 3 256 255 254 
9 8 6 0 6 9 2 257 255 
1 4 7 0 8 10 2 257 255 
1 10 3 0 9 7 2 261 257 
4 7 8 0 5 9 2 261 258 
6 2 10 0 10 6 2 261 258 
3 9 10 0 4 4 1 258 
9 8 10 0 10 7 1 259 
5 10 8 0 4 9 4 266 265 264 262 
4 10 4 0 9 10 1 261 
10 7 6 0 9 6 2 265 263 
6 7 9 0 8 8 1 263 
8 7 8 0 7 6 3 270 269 267 
6 10 5 0 10 9 3 270 269 267 
2 10 10 0 7 9 3 275 271 270 
6 10 8 0 5 7 3 275 274 271 
1 4 10 0 7 7 1 268 
4 10 10 0 10 8 2 275 271 
9 7 4 0 6 7 3 276 274 273 
9 8 10 0 8 5 2 276 273 
3 6 10 0 9 9 1 272 
10 5 10 0 10 5 2 277 273 
9 10 7 0 5 8 2 279 278 
4 3 7 0 9 10 2 279 278 
4 5 8 0 8 9 1 276 
7 10 6 0 8 6 1 277 
6 9 9 0 7 7 3 284 281 280 
5 8 7 0 10 5 2 281 280 
8 7 8 0 7 8 2 284 281 
3 8 9 0 10 8 1 282 
6 4 10 0 10 8 1 283 
2 10 7 0 8 10 1 283 
6 8 4 0 6 9 1 285 
5 8 4 0 5 10 1 285 
0 0 0 0 0 0 1 562 
0 0 0 0 0 0 4 287 289 292 293 
6 3 0 0 0 0 3 296 295 288 
5 10 0 0 0 0 1 290 
3 5 0 0 0 0 1 290 
3 10 0 0 0 0 2 291 431 
5 10 0 0 0 0 1 294 
1 4 0 0 0 0 1 295 
7 8 0 0 0 0 1 294 
2 9 0 0 0 0 1 297 
2 7 0 0 0 0 1 297 
2 9 0 0 0 0 1 297 
0 0 0 0 0 0 5 298 310 342 374 406 
0 0 0 0 0 0 3 299 300 301 
5 0 0 0 4 0 3 306 303 302 
10 0 0 0 10 0 4 306 303 302 489 
3 0 0 0 6 0 3 308 306 303 
8 0 0 0 5 0 2 308 305 
4 0 0 0 10 0 1 304 
8 0 0 0 7 0 1 305 
2 0 0 0 7 0 1 307 
4 0 0 0 6 0 1 307 
4 0 0 0 10 0 1 309 
5 0 0 0 10 0 1 309 
0 0 0 0 0 0 5 438 460 482 504 526 
0 0 0 0 0 0 3 311 312 317 
6 0 4 0 4 10 2 322 313 
6 0 7 0 4 5 2 322 313 
5 0 7 0 10 7 2 318 314 
9 0 8 0 4 6 2 319 315 
9 0 9 0 3 10 1 316 
7 0 1 0 10 6 3 326 323 320 
1 0 10 0 9 7 2 322 321 
1 0 10 0 8 10 1 319 
10 0 8 0 5 7 2 326 321 
6 0 3 0 10 10 1 321 
3 0 7 0 9 9 3 331 328 324 
1 0 5 0 5 10 2 326 324 
10 0 10 0 10 5 2 331 325 
6 0 7 0 8 4 1 325 
10 0 7 0 6 5 2 333 327 
1 0 10 0 10 10 2 331 327 
2 0 10 0 10 10 1 329 
1 0 10 0 10 10 1 329 
2 0 7 0 8 3 1 330 
2 0 10 0 5 7 3 340 335 332 
1 0 10 0 7 6 3 340 335 332 
3 0 10 0 7 10 4 339 338 336 334 
7 0 7 0 7 6 2 336 334 
4 0 5 0 8 7 1 337 
7 0 9 0 7 7 1 336 
5 0 6 0 9 9 1 341 
9 0 7 0 9 8 1 341 
8 0 6 0 7 7 1 341 
1 0 10 0 10 6 1 341 
7 0 5 0 6 8 1 341 
0 0 0 0 0 0 1 562 
0 0 0 0 0 0 3 343 357 372 
10 0 0 4 6 2 2 371 344 
7 0 0 9 6 10 3 369 368 345 
10 0 0 6 8 10 1 346 
4 0 0 10 6 3 2 367 347 
3 0 0 7 9 10 3 366 365 348 
5 0 0 10 4 10 2 364 349 
6 0 0 10 10 8 1 350 
7 0 0 5 6 6 2 363 351 
5 0 0 3 7 3 1 352 
9 0 0 9 9 7 2 362 353 
1 0 0 4 10 8 3 361 360 354 
8 0 0 10 7 8 2 359 355 
3 0 0 5 10 10 1 356 
2 0 0 8 6 5 1 358 
1 0 0 6 4 7 1 370 
7 0 0 8 10 7 1 373 
7 0 0 10 7 8 1 373 
6 0 0 8 10 9 1 373 
10 0 0 6 4 10 1 373 
8 0 0 10 10 10 1 373 
1 0 0 8 6 7 1 373 
5 0 0 4 8 5 1 373 
2 0 0 10 7 10 1 373 
7 0 0 8 8 6 1 373 
1 0 0 5 9 7 1 373 
7 0 0 8 6 9 1 373 
9 0 0 5 6 10 1 373 
9 0 0 10 9 5 1 373 
8 0 0 9 8 7 1 373 
4 0 0 10 9 8 1 373 
0 0 0 0 0 0 1 562 
0 0 0 0 0 0 3 375 376 388 
5 2 2 4 0 0 2 393 377 
10 9 8 3 0 0 2 393 377 
10 8 4 10 0 0 2 381 378 
7 6 5 5 0 0 2 384 379 
10 5 10 8 0 0 2 395 380 
3 4 8 10 0 0 2 391 382 
3 9 7 5 0 0 2 384 383 
3 8 7 10 0 0 1 383 
8 10 9 10 0 0 3 399 390 385 
5 9 10 5 0 0 3 399 396 386 
6 9 10 8 0 0 2 396 386 
8 10 10 10 0 0 1 387 
9 8 4 10 0 0 1 389 
8 6 4 5 0 0 1 389 
2 6 8 8 0 0 2 403 392 
10 10 9 3 0 0 2 403 392 
2 8 9 10 0 0 2 403 392 
7 7 3 5 0 0 3 404 398 394 
8 4 10 10 0 0 1 394 
10 8 8 10 0 0 3 402 401 397 
6 6 7 8 0 0 2 401 400 
2 10 6 10 0 0 1 397 
5 10 10 9 0 0 1 400 
2 6 7 5 0 0 1 401 
6 8 10 2 0 0 1 403 
9 7 10 8 0 0 1 405 
3 9 7 8 0 0 1 405 
10 8 10 10 0 0 1 405 
7 10 8 6 0 0 1 405 
10 5 5 10 0 0 1 405 
0 0 0 0 0 0 1 562 
0 0 0 0 0 0 3 407 408 421 
7 4 4 0 6 0 2 426 409 
3 6 6 0 8 0 2 426 409 
1 6 8 0 7 0 2 413 410 
4 10 8 0 6 0 2 416 411 
2 6 6 0 9 0 2 431 412 
6 8 9 0 9 0 2 424 414 
9 10 5 0 6 0 2 416 415 
4 10 6 0 5 0 1 415 
9 10 10 0 10 0 3 430 420 417 
7 5 8 0 6 0 3 430 427 418 
5 8 6 0 7 0 2 427 418 
10 6 6 0 7 0 1 419 
4 10 8 0 10 0 2 436 422 
1 7 7 0 9 0 2 436 423 
3 7 7 0 8 0 2 436 423 
8 10 5 0 7 0 1 423 
9 5 7 0 7 0 3 435 429 425 
6 7 10 0 6 0 2 435 425 
8 9 10 0 5 0 3 434 432 428 
1 7 7 0 10 0 2 433 432 
1 10 8 0 10 0 1 428 
9 10 10 0 10 0 1 433 
2 10 6 0 10 0 1 432 
6 4 10 0 4 0 1 436 
8 6 10 0 10 0 1 432 
7 6 7 0 3 0 1 437 
3 5 8 0 10 0 1 437 
8 9 5 0 8 0 1 437 
4 4 8 0 4 0 1 437 
7 10 10 0 8 0 1 437 
0 0 0 0 0 0 1 562 
0 0 0 0 0 0 1 439 
8 0 0 0 1 4 1 440 
4 0 0 0 8 8 2 442 441 
8 0 0 0 9 4 2 444 443 
8 0 0 0 4 5 1 443 
8 0 0 0 10 8 2 447 445 
1 0 0 0 8 7 4 449 448 447 446 
7 0 0 0 10 10 3 449 448 446 
3 0 0 0 5 8 3 453 451 450 
4 0 0 0 8 7 3 453 451 450 
4 0 0 0 6 10 2 451 450 
10 0 0 0 10 6 1 450 
1 0 0 0 9 8 2 454 452 
7 0 0 0 8 10 2 454 452 
5 0 0 0 7 8 2 458 455 
5 0 0 0 10 10 2 458 454 
3 0 0 0 10 8 2 457 456 
2 0 0 0 6 5 2 457 456 
10 0 0 0 7 9 1 459 
9 0 0 0 4 7 1 459 
3 0 0 0 10 8 1 459 
0 0 0 0 0 0 1 562 
0 0 0 0 0 0 2 461 463 
1 4 0 0 6 0 2 466 462 
2 5 0 0 3 0 1 464 
6 10 0 0 10 0 1 464 
2 8 0 0 9 0 3 469 468 465 
1 9 0 0 10 0 3 480 471 467 
9 7 0 0 8 0 3 472 470 469 
5 9 0 0 10 0 2 474 470 
5 10 0 0 7 0 3 476 474 472 
6 10 0 0 3 0 3 479 478 475 
3 5 0 0 7 0 2 478 473 
9 10 0 0 9 0 2 478 475 
6 5 0 0 7 0 3 480 478 477 
4 9 0 0 9 0 1 475 
5 8 0 0 6 0 2 479 477 
2 8 0 0 6 0 1 476 
7 8 0 0 9 0 1 477 
9 8 0 0 7 0 1 481 
10 4 0 0 7 0 1 481 
10 7 0 0 7 0 1 481 
6 6 0 0 10 0 1 481 
0 0 0 0 0 0 1 562 
0 0 0 0 0 0 2 483 484 
8 2 3 0 0 0 2 487 486 
1 4 7 0 0 0 2 488 485 
3 9 9 0 0 0 1 486 
9 3 10 0 0 0 2 492 489 
3 9 3 0 0 0 2 490 488 
8 7 8 0 0 0 4 496 494 492 491 
1 8 6 0 0 0 1 490 
3 10 8 0 0 0 3 496 494 491 
4 5 6 0 0 0 2 495 493 
5 6 8 0 0 0 2 495 493 
3 10 10 0 0 0 4 502 499 498 497 
2 10 8 0 0 0 3 502 498 497 
5 8 8 0 0 0 2 502 500 
1 7 8 0 0 0 1 497 
1 7 6 0 0 0 1 500 
8 6 8 0 0 0 1 500 
7 10 7 0 0 0 1 500 
9 10 10 0 0 0 1 501 
1 9 7 0 0 0 1 503 
10 10 10 0 0 0 1 503 
0 0 0 0 0 0 1 562 
0 0 0 0 0 0 4 505 522 523 524 
10 3 0 0 4 0 1 506 
7 7 0 0 10 0 4 521 520 519 507 
10 8 0 0 10 0 2 518 508 
9 6 0 0 9 0 2 517 509 
9 4 0 0 9 0 2 516 510 
5 9 0 0 4 0 2 515 511 
5 9 0 0 6 0 1 512 
10 5 0 0 9 0 1 513 
9 10 0 0 7 0 1 514 
1 8 0 0 7 0 1 525 
5 6 0 0 5 0 1 525 
9 8 0 0 9 0 1 525 
10 8 0 0 6 0 1 525 
7 8 0 0 10 0 1 525 
6 8 0 0 5 0 1 525 
5 10 0 0 8 0 1 525 
7 4 0 0 10 0 1 525 
1 9 0 0 8 0 1 525 
5 10 0 0 10 0 1 525 
3 10 0 0 4 0 1 525 
0 0 0 0 0 0 1 562 
0 0 0 0 0 0 2 527 528 
10 0 0 0 3 0 2 531 529 
4 0 0 0 10 0 1 529 
7 0 0 0 2 0 1 530 
9 0 0 0 10 0 3 534 533 532 
9 0 0 0 10 0 1 532 
7 0 0 0 8 0 1 535 
10 0 0 0 6 0 1 536 
10 0 0 0 8 0 1 535 
10 0 0 0 8 0 1 537 
7 0 0 0 10 0 1 537 
0 0 0 0 0 0 2 538 550 
0 0 0 0 0 0 4 539 540 541 544 
1 0 1 0 0 0 2 548 542 
3 0 6 0 0 0 2 547 542 
5 0 9 0 0 0 1 542 
1 0 10 0 0 0 1 543 
3 0 10 0 0 0 1 545 
3 0 9 0 0 0 1 545 
9 0 9 0 0 0 1 546 
4 0 9 0 0 0 1 549 
6 0 2 0 0 0 1 549 
4 0 10 0 0 0 1 549 
0 0 0 0 0 0 1 562 
0 0 0 0 0 0 3 551 553 557 
2 0 0 1 0 0 3 556 555 552 
1 0 0 10 0 0 1 554 
9 0 0 5 0 0 1 554 
10 0 0 10 0 0 2 560 558 
9 0 0 4 0 0 2 560 558 
6 0 0 6 0 0 2 560 558 
6 0 0 10 0 0 2 560 558 
1 0 0 10 0 0 1 559 
1 0 0 10 0 0 1 561 
10 0 0 9 0 0 1 561 
0 0 0 0 0 0 1 562 
0 0 0 0 0 0 0 
